certificates/rado_a11_c31_N24.cnf
c Rad2 upper bound instance: x1 + 11*x2 - x3 = 31, interval [1,24]
p cnf 24 104
1 3 0
-1 -3 0
1 4 14 0
-1 -4 -14 0
2 3 4 0
-2 -3 -4 0
2 4 15 0
-2 -4 -15 0
3 5 0
-3 -5 0
3 4 16 0
-3 -4 -16 0
3 4 6 0
-3 -4 -6 0
4 17 0
-4 -17 0
3 5 7 0
-3 -5 -7 0
4 5 18 0
-4 -5 -18 0
3 6 8 0
-3 -6 -8 0
4 6 19 0
-4 -6 -19 0
3 7 9 0
-3 -7 -9 0
4 7 20 0
-4 -7 -20 0
3 8 10 0
-3 -8 -10 0
4 8 21 0
-4 -8 -21 0
3 9 11 0
-3 -9 -11 0
4 9 22 0
-4 -9 -22 0
1 2 10 0
-1 -2 -10 0
3 10 12 0
-3 -10 -12 0
4 10 23 0
-4 -10 -23 0
2 11 0
-2 -11 0
3 11 13 0
-3 -11 -13 0
4 11 24 0
-4 -11 -24 0
2 3 12 0
-2 -3 -12 0
3 12 14 0
-3 -12 -14 0
2 4 13 0
-2 -4 -13 0
3 13 15 0
-3 -13 -15 0
2 5 14 0
-2 -5 -14 0
3 14 16 0
-3 -14 -16 0
2 6 15 0
-2 -6 -15 0
3 15 17 0
-3 -15 -17 0
2 7 16 0
-2 -7 -16 0
3 16 18 0
-3 -16 -18 0
2 8 17 0
-2 -8 -17 0
3 17 19 0
-3 -17 -19 0
2 9 18 0
-2 -9 -18 0
3 18 20 0
-3 -18 -20 0
2 10 19 0
-2 -10 -19 0
3 19 21 0
-3 -19 -21 0
2 11 20 0
-2 -11 -20 0
3 20 22 0
-3 -20 -22 0
1 21 0
-1 -21 0
2 12 21 0
-2 -12 -21 0
3 21 23 0
-3 -21 -23 0
1 2 22 0
-1 -2 -22 0
2 13 22 0
-2 -13 -22 0
3 22 24 0
-3 -22 -24 0
1 3 23 0
-1 -3 -23 0
2 14 23 0
-2 -14 -23 0
1 4 24 0
-1 -4 -24 0
2 15 24 0
-2 -15 -24 0
