certificates/rado_a11_c31_N24.drat
-22 -24 0
d -22 -3 -24 0
3 4 0
-3 -23 0
3 -24 0
-24 0
4 0
-17 0
-3 0
1 0
5 0
22 0
19 0
15 0
-21 0
-2 0
-14 0
-18 0
-9 0
-6 0
23 0
11 0
12 0
8 0
16 0
20 0
0
